c Grafo no formato DIMACS 
p edge 60 152 
e 1 45 
e 1 34 
e 1 23 
e 1 13 
e 1 3 
e 2 60 
e 2 47 
e 2 36 
e 2 33 
e 2 24 
e 2 15 
e 2 6 
e 3 44 
e 3 43 
e 3 35 
e 3 34 
e 3 31 
e 3 19 
e 3 16 
e 3 15 
e 3 7 
e 4 58 
e 4 56 
e 4 48 
e 4 16 
e 4 13 
e 5 57 
e 5 34 
e 6 58 
e 6 49 
e 6 48 
e 6 44 
e 6 34 
e 6 30 
e 7 56 
e 7 54 
e 7 53 
e 7 46 
e 7 8 
e 8 56 
e 8 14 
e 9 55 
e 9 48 
e 9 18 
e 10 28 
e 10 11 
e 11 56 
e 11 50 
e 11 40 
e 11 37 
e 11 36 
e 11 26 
e 11 25 
e 11 23 
e 11 21 
e 11 17 
e 12 60 
e 12 38 
e 12 34 
e 12 17 
e 13 57 
e 13 49 
e 13 43 
e 13 37 
e 13 30 
e 13 28 
e 14 54 
e 14 52 
e 14 39 
e 14 19 
e 14 15 
e 15 60 
e 15 57 
e 15 51 
e 15 37 
e 15 31 
e 15 27 
e 15 22 
e 16 57 
e 16 53 
e 16 41 
e 17 53 
e 17 41 
e 17 38 
e 17 37 
e 17 31 
e 18 42 
e 18 25 
e 18 21 
e 19 44 
e 20 59 
e 20 56 
e 20 53 
e 21 56 
e 21 47 
e 21 34 
e 22 42 
e 22 41 
e 22 37 
e 22 36 
e 23 59 
e 23 56 
e 23 28 
e 23 25 
e 24 60 
e 24 58 
e 25 59 
e 25 57 
e 25 31 
e 25 29 
e 26 40 
e 26 36 
e 26 30 
e 27 58 
e 27 44 
e 27 37 
e 27 29 
e 28 51 
e 29 44 
e 30 44 
e 30 43 
e 30 42 
e 31 50 
e 31 44 
e 31 38 
e 32 41 
e 33 53 
e 33 46 
e 33 42 
e 33 36 
e 34 37 
e 35 55 
e 35 36 
e 37 44 
e 39 51 
e 40 59 
e 40 58 
e 40 55 
e 40 47 
e 41 55 
e 41 54 
e 41 45 
e 42 52 
e 43 56 
e 44 56 
e 44 52 
e 48 59 
e 49 55 
e 50 55 
e 53 60 
e 53 57 
e 53 56 
